1 2
2 2
3 2
4 1
5 2
6 2
7 2
8 2
9 1
10 1
11 1
12 1
13 2
14 2
15 1
16 2
17 2
18 1
19 1
20 2
21 2
22 2
23 1
24 2
25 2
26 2
27 1
28 1
29 2
30 1
31 2
32 2
33 1
34 2
35 2
36 1
37 2
38 2
39 1
40 2
41 2
42 2
43 2
44 1
45 1
46 2
47 2
48 1
49 1
50 1
51 1
52 1
53 2
54 1
55 1
56 2
57 1
58 2
59 1
60 2
61 1
62 1
63 1
64 2
65 2
66 1
67 2
68 1
69 1
70 1
71 2
72 1
73 1
74 1
75 2
76 1
77 1
78 1
79 2
80 2
81 2
82 2
83 1
84 1
85 2
86 1
87 2
88 1
89 2
90 1
91 1
92 1
93 2
94 2
95 2
96 1
97 1
98 1
99 1
100 2
